NAME: bip_50_8
TYPE: TSP
COMMENT: bip_50_8
DIMENSION: 50
EDGE_WEIGHT_TYPE: EUC_2D
NODE_COORD_SECTION
1 57 72
2 34 19
3 8 69
4 51 9
5 21 54
6 68 17
7 7 16
8 93 51
9 6 16
10 96 99
11 3 53
12 74 12
13 95 7
14 28 82
15 32 84
16 67 13
17 48 42
18 82 65
19 65 12
20 41 5
21 69 52
22 7 84
23 0 92
24 40 73
25 70 67
26 443 419
27 453 444
28 450 483
29 410 482
30 497 475
31 467 495
32 470 454
33 472 460
34 461 497
35 447 438
36 467 419
37 407 439
38 403 401
39 489 405
40 413 498
41 487 436
42 487 489
43 484 479
44 481 401
45 476 467
46 427 484
47 417 457
48 476 407
49 450 466
50 467 490
